(declare-fun temp2350_1 () (_ BitVec 64))
(declare-fun var140390 () (_ BitVec 64))
(declare-fun temp2350_3 () (_ BitVec 64))
(declare-fun temp2350_2 () (_ BitVec 64))
(declare-fun temp2350_4 () (_ BitVec 64))
(declare-fun var2565548 () (_ BitVec 64))
(declare-fun temp2350_5 () (_ BitVec 64))
(declare-fun var2634158 () (_ BitVec 64))
(declare-fun temp2350_7 () (_ BitVec 64))
(declare-fun temp2350_6 () (_ BitVec 64))
(declare-fun temp2350_9 () (_ BitVec 64))
(declare-fun temp2350_8 () (_ BitVec 64))
(declare-fun temp2350_11 () (_ BitVec 64))
(declare-fun temp2350_10 () (_ BitVec 64))
(declare-fun temp2350_13 () (_ BitVec 64))
(declare-fun temp2350_12 () (_ BitVec 64))
(declare-fun temp2350_14 () (_ BitVec 64))
(declare-fun var2634159 () (_ BitVec 64))
(declare-fun temp2350_15 () (_ BitVec 64))
(declare-fun var4792923 () (_ BitVec 64))
(declare-fun temp2350_16 () (_ BitVec 64))
(declare-fun var77802 () (_ BitVec 64))
(declare-fun temp2350_17 () (_ BitVec 64))
(declare-fun var77803 () (_ BitVec 64))
(declare-fun temp2350_18 () (_ BitVec 64))
(declare-fun temp2350_19 () (_ BitVec 64))
(declare-fun var77861 () (_ BitVec 64))
(declare-fun temp2350_20 () (_ BitVec 64))
(declare-fun var77862 () (_ BitVec 64))
(declare-fun temp2350_22 () (_ BitVec 64))
(declare-fun temp2350_21 () (_ BitVec 64))
(declare-fun temp2350_23 () (_ BitVec 64))
(declare-fun var5381789 () (_ BitVec 64))
(assert (= temp2350_1 #x0000000000000000))
(assert (= var140390 temp2350_1))
(assert (= temp2350_3 #xffffffffffffffff))
(assert (= temp2350_2 temp2350_3))
(assert (= temp2350_4 #x0000000000000000))
(assert (= var2565548 temp2350_4))
(assert (= temp2350_5 #x0000000000000000))
(assert (= var2634158 temp2350_5))
(assert (= temp2350_7 #x0000000000000001))
(assert (= temp2350_6 temp2350_7))
(assert (= temp2350_9 #x0000000000000000))
(assert (= temp2350_8 temp2350_9))
(assert (= temp2350_11 #x0000000000000001))
(assert (= temp2350_10 temp2350_11))
(assert (= temp2350_13 #x0000000000000001))
(assert (= temp2350_12 temp2350_13))
(assert (= temp2350_14 #x0000000000000001))
(assert (= var2634159 (bvadd var2634158 temp2350_14)))
(assert (= temp2350_15 #x0000000000000001))
(assert (= var4792923 temp2350_15))
(assert (= temp2350_16 #x0000000000000014))
(assert (= var77802 temp2350_16))
(assert (= temp2350_17 #x0000000000000014))
(assert (= var77803
   (ite (= var77802 temp2350_17) #x0000000000000001 #x0000000000000000)))
(assert (= temp2350_18 #x0000000000000001))
(assert (= var77803 temp2350_18))
(assert (= temp2350_19 #x0000000000000000))
(assert (= var77861 temp2350_19))
(assert (= temp2350_20 #x0000000000000001))
(assert (= var77862 (bvadd var77861 temp2350_20)))
(assert (= temp2350_22 #x0000000000000001))
(assert (= temp2350_21 temp2350_22))
(assert (= temp2350_23 #x0000000000000002))
(assert (= var5381789 temp2350_23))
(model-add temp2350_1 () (_ BitVec 64) #x0000000000000000)
(model-add var140390 () (_ BitVec 64) #x0000000000000000)
(model-add temp2350_3 () (_ BitVec 64) #xffffffffffffffff)
(model-add temp2350_2 () (_ BitVec 64) #xffffffffffffffff)
(model-add temp2350_4 () (_ BitVec 64) #x0000000000000000)
(model-add var2565548 () (_ BitVec 64) #x0000000000000000)
(model-add temp2350_5 () (_ BitVec 64) #x0000000000000000)
(model-add var2634158 () (_ BitVec 64) #x0000000000000000)
(model-add temp2350_7 () (_ BitVec 64) #x0000000000000001)
(model-add temp2350_6 () (_ BitVec 64) #x0000000000000001)
(model-add temp2350_9 () (_ BitVec 64) #x0000000000000000)
(model-add temp2350_8 () (_ BitVec 64) #x0000000000000000)
(model-add temp2350_11 () (_ BitVec 64) #x0000000000000001)
(model-add temp2350_10 () (_ BitVec 64) #x0000000000000001)
(model-add temp2350_13 () (_ BitVec 64) #x0000000000000001)
(model-add temp2350_12 () (_ BitVec 64) #x0000000000000001)
(model-add temp2350_14 () (_ BitVec 64) #x0000000000000001)
(model-add var2634159 () (_ BitVec 64) #x0000000000000001)
(model-add temp2350_15 () (_ BitVec 64) #x0000000000000001)
(model-add var4792923 () (_ BitVec 64) #x0000000000000001)
(model-add temp2350_16 () (_ BitVec 64) #x0000000000000014)
(model-add var77802 () (_ BitVec 64) #x0000000000000014)
(model-add temp2350_17 () (_ BitVec 64) #x0000000000000014)
(model-add var77803 () (_ BitVec 64) #x0000000000000001)
(model-add temp2350_18 () (_ BitVec 64) #x0000000000000001)

